500 150
1 68
2 90
3 38
4 98
5 44
6 66
7 76
8 67
9 65 27 38 76 110 141 150 162 207 214 217 255 287 312 318 335 348 390 393 406 418 419 448 452
10 81
11 95
12 62 18 27 38 49 69 76 93 110 114 122 141 149 150 157 162 207 214 217 222 225 229 232 233 241 255 262 266 272 287 288 290 298 306 310 312 318 324 335 348 363 371 390 393 403 406 412 418 419 448 452 458 460 470 473 489
13 34
14 33
15 56
16 75
17 40
18 72 27 38 69 76 110 114 122 141 150 162 207 214 217 222 229 232 233 255 262 287 298 312 318 324 335 348 371 390 393 403 406 412 418 419 448 452 458 460 489
19 49
20 95
21 59
22 40
23 53
24 27
25 70
26 27
27 72 32 36 38 42 43 48 49 63 69 76 86 93 94 98 110 114 122 126 132 141 144 149 150 152 157 162 178 207 210 211 214 217 222 225 229 232 233 241 244 247 249 255 262 266 272 276 278 280 281 287 288 290 298 306 310 312 317 318 324 334 335 340 344 345 348 351 362 363 371 382 390 393 403 405 406 412 418 419 421 425 439 448 452 458 459 460 468 469 470 473 486 489 498
28 92
29 79
30 66
31 92
32 47 38 76 110 150 162 207 214 217 255 287 312 335 348 390 393 406 418 419 448 452
33 87
34 32
35 51
36 94 76 110 217 312 335 348 393 448 452
37 22
38 79 42 43 49 63 69 76 86 93 110 114 122 126 132 141 149 150 152 157 162 207 210 211 214 217 222 225 229 232 233 241 244 247 249 255 262 266 272 280 287 288 290 298 306 310 312 318 324 334 335 340 344 345 348 351 363 371 390 393 403 405 406 412 418 419 421 425 448 452 458 460 469 470 473 489 498
39 75
40 70
41 58
42 85 76 110 141 150 162 207 214 217 255 262 287 312 318 335 348 390 393 406 418 419 448 452
43 37 76 110 141 150 162 207 214 217 222 229 232 255 262 287 298 312 318 324 335 348 371 390 393 406 418 419 448 452 458 489
44 68
45 69
46 47
47 63
48 37 110 217 312 335 348 393 448 452
49 53 69 76 93 110 114 122 141 150 162 207 214 217 222 225 229 232 233 241 255 262 272 287 288 290 298 310 312 318 324 335 348 363 371 390 393 403 406 412 418 419 448 452 458 460 473 489
50 90
51 85
52 88
53 68
54 100
55 86
56 93
57 26
58 44
59 77
60 72
61 46
62 58
63 44 76 110 141 150 162 207 214 217 255 287 312 335 348 390 393 406 418 419 448 452
64 49
65 100
66 72
67 76
68 74
69 78 76 86 93 110 114 122 141 149 150 157 162 207 211 214 217 222 225 229 232 233 241 244 247 249 255 262 266 272 287 288 290 298 306 310 312 318 324 334 335 340 348 363 371 390 393 403 405 406 412 418 419 425 448 452 458 460 470 473 489
70 30
71 79
72 30
73 88
74 29
75 70
76 69 86 93 110 114 122 126 132 141 144 149 150 152 157 162 207 210 211 214 217 222 225 229 232 233 241 244 247 249 255 262 266 272 278 280 287 288 290 298 306 310 312 318 324 334 335 340 344 345 348 351 363 371 382 390 393 403 405 406 412 418 419 421 425 448 452 458 460 469 470 473 489 498
77 26
78 53
79 86
80 48
81 55
82 30
83 95
84 22
85 79
86 94 110 141 150 162 207 214 217 222 229 232 233 255 262 287 298 312 318 324 335 348 371 390 393 406 418 419 448 452 458 489
87 54
88 43
89 84
90 51
91 80
92 90
93 61 110 114 122 141 150 162 207 214 217 222 225 229 232 233 241 255 262 272 287 288 290 298 306 310 312 318 324 335 348 363 371 390 393 403 406 412 418 419 448 452 458 460 470 473 489
94 43 312 393 452
95 71
96 72
97 82
98 83 110 217 312 335 348 393 448 452
99 91
100 56
101 42
102 45
103 80
104 73
105 62
106 95
107 53
108 40
109 42
110 63 114 122 126 132 141 144 149 150 152 157 162 207 210 211 214 217 222 225 229 232 233 241 244 247 249 255 262 266 272 276 278 280 281 287 288 290 298 306 310 312 318 324 334 335 340 344 345 348 351 363 371 382 390 393 403 405 406 412 418 419 421 425 439 448 452 458 460 469 470 473 489 498
111 80
112 79
113 86
114 59 122 141 149 150 157 162 207 214 217 222 225 229 232 233 241 255 262 266 272 287 288 290 298 306 310 312 318 324 335 348 363 371 390 393 403 406 412 418 419 448 452 458 460 470 473 489
115 22
116 62
117 72
118 51
119 60
120 55
121 56
122 92 141 149 150 157 162 207 214 217 222 225 229 232 233 241 255 262 266 272 287 288 290 298 306 310 312 318 324 335 340 348 363 371 390 393 403 406 412 418 419 448 452 458 460 470 473 489
123 56
124 55
125 51
126 34 141 150 162 207 214 217 255 262 287 298 312 318 324 335 348 390 393 406 418 419 448 452
127 100
128 89
129 64
130 99
131 87
132 74 141 150 162 207 214 217 229 255 262 287 298 312 318 324 335 348 371 390 393 406 418 419 448 452 458 489
133 38
134 28
135 50
136 86
137 92
138 98
139 30
140 30
141 89 149 150 157 162 207 210 211 214 217 222 225 229 232 233 241 244 247 249 255 262 266 272 280 287 288 290 298 306 310 312 318 324 334 335 340 348 351 363 371 390 393 403 405 406 412 418 419 425 448 452 458 460 470 473 489
142 51
143 65
144 31 217 312 335 348 393 448 452
145 60
146 85
147 79
148 39
149 27 150 162 207 214 217 222 229 232 233 255 262 287 298 312 318 324 335 348 371 390 393 403 406 418 419 448 452 458 489
150 61 157 162 207 210 211 214 217 222 225 229 232 233 241 244 247 249 255 262 266 272 280 287 288 290 298 306 310 312 318 324 334 335 340 345 348 351 363 371 390 393 403 405 406 412 418 419 421 425 448 452 458 460 469 470 473 489 498
151 84
152 41 162 207 214 217 255 287 312 335 348 390 393 406 418 419 448 452
153 53
154 77
155 77
156 94
157 86 162 207 214 217 222 229 232 233 255 262 287 298 312 318 324 335 348 371 390 393 406 418 419 448 452 458 489
158 91
159 49
160 47
161 35
162 28 207 210 211 214 217 222 225 229 232 233 241 244 247 249 255 262 266 272 280 287 288 290 298 306 310 312 318 324 334 335 340 345 348 351 363 371 390 393 403 405 406 412 418 419 421 425 448 452 458 460 469 470 473 489 498
163 82
164 73
165 34
166 92
167 51
168 35
169 51
170 47
171 64
172 89
173 72
174 89
175 22
176 52
177 75
178 85 217 312 335 348 393 448 452
179 73
180 83
181 56
182 58
183 57
184 64
185 50
186 66
187 26
188 80
189 61
190 54
191 40
192 89
193 46
194 45
195 59
196 51
197 79
198 73
199 95
200 42
201 21
202 64
203 73
204 68
205 65
206 100
207 50 210 211 214 217 222 225 229 232 233 241 244 247 249 255 262 266 272 280 287 288 290 298 306 310 312 318 324 334 335 340 345 348 351 363 371 390 393 403 405 406 412 418 419 421 425 448 452 458 460 469 470 473 489 498
208 81
209 55
210 71 214 217 255 262 287 298 312 318 324 335 348 390 393 406 418 419 448 452
211 44 214 217 222 229 232 233 255 262 287 298 312 318 324 335 348 371 390 393 406 418 419 448 452 458 489
212 63
213 76
214 36 217 222 225 229 232 233 241 244 247 249 255 262 266 272 280 287 288 290 298 306 310 312 318 324 334 335 340 345 348 351 363 371 390 393 403 405 406 412 418 419 421 425 448 452 458 460 469 470 473 489 498
215 73
216 74
217 98 222 225 229 232 233 241 244 247 249 255 262 266 272 276 278 280 281 287 288 290 298 306 310 312 317 318 324 334 335 340 344 345 348 351 362 363 371 382 390 393 403 405 406 412 418 419 421 425 439 448 452 458 460 468 469 470 473 486 489 498
218 36
219 97
220 23
221 58
222 50 225 229 232 233 241 244 247 249 255 262 266 272 287 288 290 298 306 310 312 318 324 334 335 340 348 351 363 371 390 393 403 405 406 412 418 419 425 448 452 458 460 470 473 489
223 70
224 75
225 97 229 232 233 241 255 262 272 287 288 290 298 310 312 318 324 335 348 363 371 390 393 403 406 412 418 419 448 452 458 460 473 489
226 76
227 24
228 72
229 34 232 233 241 244 247 249 255 262 266 272 287 288 290 298 306 310 312 318 324 334 335 340 348 351 363 371 390 393 403 405 406 412 418 419 425 448 452 458 460 470 473 489
230 36
231 67
232 45 233 241 244 247 249 255 262 266 272 287 288 290 298 306 310 312 318 324 334 335 340 348 363 371 390 393 403 405 406 412 418 419 425 448 452 458 460 470 473 489
233 55 241 244 255 262 266 272 287 288 290 298 306 310 312 318 324 335 340 348 363 371 390 393 403 405 406 412 418 419 448 452 458 460 470 473 489
234 94
235 63
236 100
237 95
238 54
239 40
240 62
241 68 255 262 272 287 288 290 298 310 312 318 324 335 348 363 371 390 393 403 406 412 418 419 448 452 458 460 470 473 489
242 87
243 48
244 37 255 262 287 298 312 318 324 335 348 371 390 393 406 418 419 448 452 458 489
245 85
246 73
247 62 255 262 287 298 312 318 324 335 348 371 390 393 406 418 419 448 452 458 489
248 22
249 23 255 262 287 298 312 318 324 335 348 371 390 393 406 418 419 448 452 458 489
250 33
251 81
252 41
253 27
254 95
255 46 262 266 272 280 287 288 290 298 306 310 312 318 324 334 335 340 345 348 351 363 371 390 393 403 405 406 412 418 419 421 425 448 452 458 460 469 470 473 489 498
256 69
257 45
258 39
259 32
260 98
261 41
262 46 266 272 280 287 288 290 298 306 310 312 318 324 334 335 340 348 351 363 371 390 393 403 405 406 412 418 419 425 448 452 458 460 470 473 489
263 100
264 86
265 84
266 39 287 298 312 318 324 335 348 371 390 393 406 418 419 448 452 458 489
267 67
268 34
269 92
270 59
271 43
272 21 287 288 290 298 310 312 318 324 335 348 363 371 390 393 403 406 412 418 419 448 452 458 460 470 473 489
273 56
274 88
275 26
276 35 312 335 348 393 448 452
277 51
278 22 287 312 335 348 390 393 448 452
279 100
280 96 287 312 318 335 348 390 393 406 418 419 448 452
281 49 312 335 348 393 448 452
282 95
283 38
284 62
285 63
286 97
287 42 288 290 298 306 310 312 318 324 334 335 340 344 345 348 351 363 371 390 393 403 405 406 412 418 419 421 425 448 452 458 460 469 470 473 489 498
288 62 290 298 310 312 318 324 335 348 363 371 390 393 403 406 412 418 419 448 452 458 460 470 473 489
289 100
290 43 298 306 310 312 318 324 335 348 363 371 390 393 403 406 412 418 419 448 452 458 460 470 473 489
291 44
292 77
293 97
294 94
295 68
296 23
297 50
298 36 306 310 312 318 324 334 335 340 348 351 363 371 390 393 403 405 406 412 418 419 425 448 452 458 460 470 473 489
299 89
300 58
301 97
302 27
303 64
304 65
305 54
306 58 312 318 324 335 348 371 390 393 403 406 412 418 419 448 452 458 460 489
307 24
308 35
309 33
310 63 312 318 324 335 348 363 371 390 393 403 406 412 418 419 448 452 458 460 470 473 489
311 32
312 50 317 318 324 334 335 340 344 345 348 351 362 363 371 382 390 393 403 405 406 412 418 419 421 425 439 448 452 458 459 460 468 469 470 473 486 489 498
313 58
314 90
315 44
316 50
317 48 348 393 452
318 21 324 334 335 340 348 351 363 371 390 393 403 405 406 412 418 419 425 448 452 458 460 470 473 489
319 72
320 75
321 21
322 74
323 28
324 95 334 335 340 348 351 363 371 390 393 403 405 406 412 418 419 425 448 452 458 460 470 473 489
325 77
326 69
327 96
328 24
329 57
330 85
331 72
332 96
333 50
334 83 335 348 371 390 393 406 418 419 448 452 458 489
335 65 340 344 345 348 351 362 363 371 382 390 393 403 405 406 412 418 419 421 425 439 448 452 458 460 469 470 473 489 498
336 62
337 99
338 93
339 23
340 77 348 371 390 393 406 418 419 448 452 458 489
341 94
342 31
343 50
344 33 348 390 393 406 448 452
345 79 348 390 393 406 418 419 448 452
346 73
347 23
348 55 351 362 363 371 382 390 393 403 405 406 412 418 419 421 425 439 448 452 458 460 469 470 473 489 498
349 44
350 78
351 84 371 390 393 406 418 419 448 452 458 489
352 66
353 31
354 59
355 97
356 95
357 22
358 76
359 90
360 66
361 29
362 100 393 448 452
363 90 371 390 393 403 406 412 418 419 448 452 458 460 470 473 489
364 92
365 50
366 49
367 47
368 43
369 37
370 40
371 60 390 393 403 405 406 412 418 419 425 448 452 458 460 470 473 489
372 52
373 54
374 99
375 34
376 46
377 88
378 97
379 85
380 39
381 32
382 51 393 448 452
383 95
384 54
385 99
386 86
387 48
388 90
389 28
390 25 393 403 405 406 412 418 419 421 425 448 452 458 460 469 470 473 489 498
391 86
392 39
393 74 403 405 406 412 418 419 421 425 439 448 452 458 459 460 468 469 470 473 486 489 498
394 26
395 38
396 60
397 41
398 67
399 80
400 33
401 37
402 62
403 71 406 412 418 419 448 452 458 460 470 473 489
404 87
405 31 406 418 419 448 452 458 489
406 72 412 418 419 421 425 448 452 458 460 469 470 473 489 498
407 84
408 84
409 53
410 85
411 32
412 24 418 419 448 452 458 460 470 473 489
413 88
414 54
415 28
416 36
417 91
418 61 419 421 425 448 452 458 460 469 470 473 489 498
419 29 421 425 448 452 458 460 469 470 473 489 498
420 68
421 69 448 452
422 35
423 30
424 88
425 85 448 452 458 489
426 87
427 70
428 70
429 59
430 26
431 73
432 27
433 44
434 27
435 35
436 38
437 65
438 21
439 69 448 452
440 59
441 35
442 70
443 40
444 84
445 42
446 92
447 24
448 46 452 458 460 469 470 473 489 498
449 78
450 60
451 76
452 43 458 459 460 468 469 470 473 486 489 498
453 49
454 79
455 65
456 24
457 28
458 43 460 470 473 489
459 26
460 93 470 473 489
461 62
462 91
463 21
464 21
465 32
466 34
467 86
468 27
469 79
470 34 473 489
471 88
472 93
473 58 489
474 77
475 62
476 87
477 99
478 61
479 83
480 75
481 99
482 93
483 39
484 85
485 31
486 69
487 48
488 67
489 50
490 24
491 49
492 82
493 97
494 86
495 21
496 86
497 41
498 100
499 84
500 77
